(set-logic ALL)
(declare-const content String)
(declare-const start String)
(assert (not (< (str.len content) 0)))
(assert (not (= (+ 0 (str.indexof content "\n" 0)) (- 1))))
(assert (not (< (+ 0 (str.indexof content "\n" 0)) 0)))
(assert (not (< (+ (+ 0 (str.indexof content "\n" 0)) 1) 0)))
(assert (not (< (str.len content) 0)))
(assert (not (< (str.len (str.substr content (+ (+ 0 (str.indexof content "\n" 0)) 1) (- (str.len content) (+ (+ 0 (str.indexof content "\n" 0)) 1)))) 0)))
(assert (not (= (+ 0 (str.indexof (str.substr content (+ (+ 0 (str.indexof content "\n" 0)) 1) (- (str.len content) (+ (+ 0 (str.indexof content "\n" 0)) 1))) "\n" 0)) (- 1))))
(assert (not (< (+ 0 (str.indexof (str.substr content (+ (+ 0 (str.indexof content "\n" 0)) 1) (- (str.len content) (+ (+ 0 (str.indexof content "\n" 0)) 1))) "\n" 0)) 0)))
(assert (not (< (+ (+ 0 (str.indexof (str.substr content (+ (+ 0 (str.indexof content "\n" 0)) 1) (- (str.len content) (+ (+ 0 (str.indexof content "\n" 0)) 1))) "\n" 0)) 1) 0)))
(assert (not (< (str.len (str.substr content (+ (+ 0 (str.indexof content "\n" 0)) 1) (- (str.len content) (+ (+ 0 (str.indexof content "\n" 0)) 1)))) 0)))
(assert (not (< (str.len (str.substr (str.substr content (+ (+ 0 (str.indexof content "\n" 0)) 1) (- (str.len content) (+ (+ 0 (str.indexof content "\n" 0)) 1))) (+ (+ 0 (str.indexof (str.substr content (+ (+ 0 (str.indexof content "\n" 0)) 1) (- (str.len content) (+ (+ 0 (str.indexof content "\n" 0)) 1))) "\n" 0)) 1) (- (str.len (str.substr content (+ (+ 0 (str.indexof content "\n" 0)) 1) (- (str.len content) (+ (+ 0 (str.indexof content "\n" 0)) 1)))) (+ (+ 0 (str.indexof (str.substr content (+ (+ 0 (str.indexof content "\n" 0)) 1) (- (str.len content) (+ (+ 0 (str.indexof content "\n" 0)) 1))) "\n" 0)) 1)))) 0)))
(assert (not (= (+ 0 (str.indexof (str.substr (str.substr content (+ (+ 0 (str.indexof content "\n" 0)) 1) (- (str.len content) (+ (+ 0 (str.indexof content "\n" 0)) 1))) (+ (+ 0 (str.indexof (str.substr content (+ (+ 0 (str.indexof content "\n" 0)) 1) (- (str.len content) (+ (+ 0 (str.indexof content "\n" 0)) 1))) "\n" 0)) 1) (- (str.len (str.substr content (+ (+ 0 (str.indexof content "\n" 0)) 1) (- (str.len content) (+ (+ 0 (str.indexof content "\n" 0)) 1)))) (+ (+ 0 (str.indexof (str.substr content (+ (+ 0 (str.indexof content "\n" 0)) 1) (- (str.len content) (+ (+ 0 (str.indexof content "\n" 0)) 1))) "\n" 0)) 1))) "\n" 0)) (- 1))))
(assert (not (< (+ 0 (str.indexof (str.substr (str.substr content (+ (+ 0 (str.indexof content "\n" 0)) 1) (- (str.len content) (+ (+ 0 (str.indexof content "\n" 0)) 1))) (+ (+ 0 (str.indexof (str.substr content (+ (+ 0 (str.indexof content "\n" 0)) 1) (- (str.len content) (+ (+ 0 (str.indexof content "\n" 0)) 1))) "\n" 0)) 1) (- (str.len (str.substr content (+ (+ 0 (str.indexof content "\n" 0)) 1) (- (str.len content) (+ (+ 0 (str.indexof content "\n" 0)) 1)))) (+ (+ 0 (str.indexof (str.substr content (+ (+ 0 (str.indexof content "\n" 0)) 1) (- (str.len content) (+ (+ 0 (str.indexof content "\n" 0)) 1))) "\n" 0)) 1))) "\n" 0)) 0)))
(assert (not (< (+ (+ 0 (str.indexof (str.substr (str.substr content (+ (+ 0 (str.indexof content "\n" 0)) 1) (- (str.len content) (+ (+ 0 (str.indexof content "\n" 0)) 1))) (+ (+ 0 (str.indexof (str.substr content (+ (+ 0 (str.indexof content "\n" 0)) 1) (- (str.len content) (+ (+ 0 (str.indexof content "\n" 0)) 1))) "\n" 0)) 1) (- (str.len (str.substr content (+ (+ 0 (str.indexof content "\n" 0)) 1) (- (str.len content) (+ (+ 0 (str.indexof content "\n" 0)) 1)))) (+ (+ 0 (str.indexof (str.substr content (+ (+ 0 (str.indexof content "\n" 0)) 1) (- (str.len content) (+ (+ 0 (str.indexof content "\n" 0)) 1))) "\n" 0)) 1))) "\n" 0)) 1) 0)))
(assert (not (< (str.len (str.substr (str.substr content (+ (+ 0 (str.indexof content "\n" 0)) 1) (- (str.len content) (+ (+ 0 (str.indexof content "\n" 0)) 1))) (+ (+ 0 (str.indexof (str.substr content (+ (+ 0 (str.indexof content "\n" 0)) 1) (- (str.len content) (+ (+ 0 (str.indexof content "\n" 0)) 1))) "\n" 0)) 1) (- (str.len (str.substr content (+ (+ 0 (str.indexof content "\n" 0)) 1) (- (str.len content) (+ (+ 0 (str.indexof content "\n" 0)) 1)))) (+ (+ 0 (str.indexof (str.substr content (+ (+ 0 (str.indexof content "\n" 0)) 1) (- (str.len content) (+ (+ 0 (str.indexof content "\n" 0)) 1))) "\n" 0)) 1)))) 0)))
(assert (not (< (str.len (str.substr (str.substr (str.substr content (+ (+ 0 (str.indexof content "\n" 0)) 1) (- (str.len content) (+ (+ 0 (str.indexof content "\n" 0)) 1))) (+ (+ 0 (str.indexof (str.substr content (+ (+ 0 (str.indexof content "\n" 0)) 1) (- (str.len content) (+ (+ 0 (str.indexof content "\n" 0)) 1))) "\n" 0)) 1) (- (str.len (str.substr content (+ (+ 0 (str.indexof content "\n" 0)) 1) (- (str.len content) (+ (+ 0 (str.indexof content "\n" 0)) 1)))) (+ (+ 0 (str.indexof (str.substr content (+ (+ 0 (str.indexof content "\n" 0)) 1) (- (str.len content) (+ (+ 0 (str.indexof content "\n" 0)) 1))) "\n" 0)) 1))) (+ (+ 0 (str.indexof (str.substr (str.substr content (+ (+ 0 (str.indexof content "\n" 0)) 1) (- (str.len content) (+ (+ 0 (str.indexof content "\n" 0)) 1))) (+ (+ 0 (str.indexof (str.substr content (+ (+ 0 (str.indexof content "\n" 0)) 1) (- (str.len content) (+ (+ 0 (str.indexof content "\n" 0)) 1))) "\n" 0)) 1) (- (str.len (str.substr content (+ (+ 0 (str.indexof content "\n" 0)) 1) (- (str.len content) (+ (+ 0 (str.indexof content "\n" 0)) 1)))) (+ (+ 0 (str.indexof (str.substr content (+ (+ 0 (str.indexof content "\n" 0)) 1) (- (str.len content) (+ (+ 0 (str.indexof content "\n" 0)) 1))) "\n" 0)) 1))) "\n" 0)) 1) (- (str.len (str.substr (str.substr content (+ (+ 0 (str.indexof content "\n" 0)) 1) (- (str.len content) (+ (+ 0 (str.indexof content "\n" 0)) 1))) (+ (+ 0 (str.indexof (str.substr content (+ (+ 0 (str.indexof content "\n" 0)) 1) (- (str.len content) (+ (+ 0 (str.indexof content "\n" 0)) 1))) "\n" 0)) 1) (- (str.len (str.substr content (+ (+ 0 (str.indexof content "\n" 0)) 1) (- (str.len content) (+ (+ 0 (str.indexof content "\n" 0)) 1)))) (+ (+ 0 (str.indexof (str.substr content (+ (+ 0 (str.indexof content "\n" 0)) 1) (- (str.len content) (+ (+ 0 (str.indexof content "\n" 0)) 1))) "\n" 0)) 1)))) (+ (+ 0 (str.indexof (str.substr (str.substr content (+ (+ 0 (str.indexof content "\n" 0)) 1) (- (str.len content) (+ (+ 0 (str.indexof content "\n" 0)) 1))) (+ (+ 0 (str.indexof (str.substr content (+ (+ 0 (str.indexof content "\n" 0)) 1) (- (str.len content) (+ (+ 0 (str.indexof content "\n" 0)) 1))) "\n" 0)) 1) (- (str.len (str.substr content (+ (+ 0 (str.indexof content "\n" 0)) 1) (- (str.len content) (+ (+ 0 (str.indexof content "\n" 0)) 1)))) (+ (+ 0 (str.indexof (str.substr content (+ (+ 0 (str.indexof content "\n" 0)) 1) (- (str.len content) (+ (+ 0 (str.indexof content "\n" 0)) 1))) "\n" 0)) 1))) "\n" 0)) 1)))) 0)))
(assert (= (+ 0 (str.indexof (str.substr (str.substr (str.substr content (+ (+ 0 (str.indexof content "\n" 0)) 1) (- (str.len content) (+ (+ 0 (str.indexof content "\n" 0)) 1))) (+ (+ 0 (str.indexof (str.substr content (+ (+ 0 (str.indexof content "\n" 0)) 1) (- (str.len content) (+ (+ 0 (str.indexof content "\n" 0)) 1))) "\n" 0)) 1) (- (str.len (str.substr content (+ (+ 0 (str.indexof content "\n" 0)) 1) (- (str.len content) (+ (+ 0 (str.indexof content "\n" 0)) 1)))) (+ (+ 0 (str.indexof (str.substr content (+ (+ 0 (str.indexof content "\n" 0)) 1) (- (str.len content) (+ (+ 0 (str.indexof content "\n" 0)) 1))) "\n" 0)) 1))) (+ (+ 0 (str.indexof (str.substr (str.substr content (+ (+ 0 (str.indexof content "\n" 0)) 1) (- (str.len content) (+ (+ 0 (str.indexof content "\n" 0)) 1))) (+ (+ 0 (str.indexof (str.substr content (+ (+ 0 (str.indexof content "\n" 0)) 1) (- (str.len content) (+ (+ 0 (str.indexof content "\n" 0)) 1))) "\n" 0)) 1) (- (str.len (str.substr content (+ (+ 0 (str.indexof content "\n" 0)) 1) (- (str.len content) (+ (+ 0 (str.indexof content "\n" 0)) 1)))) (+ (+ 0 (str.indexof (str.substr content (+ (+ 0 (str.indexof content "\n" 0)) 1) (- (str.len content) (+ (+ 0 (str.indexof content "\n" 0)) 1))) "\n" 0)) 1))) "\n" 0)) 1) (- (str.len (str.substr (str.substr content (+ (+ 0 (str.indexof content "\n" 0)) 1) (- (str.len content) (+ (+ 0 (str.indexof content "\n" 0)) 1))) (+ (+ 0 (str.indexof (str.substr content (+ (+ 0 (str.indexof content "\n" 0)) 1) (- (str.len content) (+ (+ 0 (str.indexof content "\n" 0)) 1))) "\n" 0)) 1) (- (str.len (str.substr content (+ (+ 0 (str.indexof content "\n" 0)) 1) (- (str.len content) (+ (+ 0 (str.indexof content "\n" 0)) 1)))) (+ (+ 0 (str.indexof (str.substr content (+ (+ 0 (str.indexof content "\n" 0)) 1) (- (str.len content) (+ (+ 0 (str.indexof content "\n" 0)) 1))) "\n" 0)) 1)))) (+ (+ 0 (str.indexof (str.substr (str.substr content (+ (+ 0 (str.indexof content "\n" 0)) 1) (- (str.len content) (+ (+ 0 (str.indexof content "\n" 0)) 1))) (+ (+ 0 (str.indexof (str.substr content (+ (+ 0 (str.indexof content "\n" 0)) 1) (- (str.len content) (+ (+ 0 (str.indexof content "\n" 0)) 1))) "\n" 0)) 1) (- (str.len (str.substr content (+ (+ 0 (str.indexof content "\n" 0)) 1) (- (str.len content) (+ (+ 0 (str.indexof content "\n" 0)) 1)))) (+ (+ 0 (str.indexof (str.substr content (+ (+ 0 (str.indexof content "\n" 0)) 1) (- (str.len content) (+ (+ 0 (str.indexof content "\n" 0)) 1))) "\n" 0)) 1))) "\n" 0)) 1))) "\n" 0)) (- 1)))
(assert (not (str.contains (str.substr content 0 (- (+ 0 (str.indexof content "\n" 0)) 0)) start)))
(check-sat)
(get-value (content))
(get-value (start))
